53354
48 19 897
19 44 1282
44 38 690
38 8 368
8 32 678
32 41 362
41 13 686
13 5 723
5 35 323
35 24 296
24 50 868
50 20 763
20 7 846
7 37 517
37 51 590
51 40 1042
40 43 1279
43 3 1096
3 6 385
6 28 404
28 55 487
55 49 711
49 26 560
26 54 967
54 47 491
47 30 944
30 4 380
4 18 606
18 12 768
12 9 723
9 14 471
14 2 433
2 42 1722
42 33 4807
33 1 7621
1 27 4123
27 31 4460
31 25 299
25 11 545
11 45 436
45 52 722
52 15 631
15 36 679
36 46 402
46 39 214
39 16 451
16 10 734
10 22 117
22 29 544
29 21 516
21 23 176
23 53 388
53 34 396
34 17 1320
17 48 415
